File : Instances/p69
Use 141 s

27080

1 1 0 0 1 0 0 1 0 0 0 0 1 1 0 0 0 1 0 1 1 1 0 0 1 1 0 0 0 0 
7 19 21 24 21 12 21 0 24 17 4 17 13 1 19 7 1 20 24 0 7 21 1 24 13 7 24 19 4 21 19 19 4 21 24 12 20 20 24 21 7 20 12 4 13 19 13 21 19 20 24 24 21 21 20 12 25 20 7 25 4 0 7 20 13 25 0 17 19 25 7 12 19 20 0 1 20 0 20 24 13 0 20 25 4 13 19 0 24 7 17 19 25 25 0 1 17 12 0 17 17 21 25 7 4 0 4 24 24 13 19 4 0 12 12 20 17 7 17 13 19 25 17 19 4 21 21 12 19 17 17 24 25 20 1 20 1 13 17 17 12 24 12 25 25 0 24 21 7 25 24 17 13 0 20 12 21 21 13 13 13 0 13 0 0 0 1 4 1 21 1 20 19 20 4 21 0 20 4 20 21 21 21 19 12 20 12 13 0 21 21 21 19 4 7 12 7 21 13 19 
